<?xml version = "1.0" encoding="UTF-8" standalone="yes"?>
<CPLEXSolution version="1.2">
 <header
   problemName="IloCplex"
   solutionName="p0"
   solutionIndex="-1"
   objectiveValue="187522.00000001557"
   solutionTypeValue="3"
   solutionTypeString="primal"
   solutionStatusValue="127"
   solutionStatusString="integer feasible solution"
   solutionMethodString="mip"
   primalFeasible="0"
   dualFeasible="0"
   writeLevel="3"/>
 <quality
   epInt="1.0000000000000001e-05"
   epRHS="9.9999999999999995e-07"
   maxIntInfeas="5.00022245830678e-12"
   maxPrimalInfeas="1.7751062841853127e-09"
   maxX="710.00000000355021"
   maxSlack="90.000000000449973"/>
 <variables>
  <variable name="x1" index="0" value="710"/>
  <variable name="w0_0" index="1" value="710.00000000002888"/>
  <variable name="w0_2" index="3" value="710"/>
  <variable name="w1_0" index="5" value="710.00000000355021"/>
  <variable name="w1_1" index="6" value="710"/>
  <variable name="w1_2" index="7" value="709.99999999800002"/>
  <variable name="w2_3" index="12" value="710"/>
  <variable name="w3_2" index="15" value="710"/>
  <variable name="w5_1" index="22" value="710"/>
  <variable name="w5_2" index="23" value="709.9999999999992"/>
  <variable name="w6_0" index="25" value="709.99999999999909"/>
  <variable name="w6_1" index="26" value="710.00000000011619"/>
  <variable name="w6_3" index="28" value="-3.007016857736744e-10"/>
  <variable name="w7_2" index="31" value="710"/>
  <variable name="w8_0" index="33" value="710.00000000000011"/>
  <variable name="w8_2" index="35" value="710"/>
  <variable name="w9_1" index="38" value="710"/>
  <variable name="w10_3" index="44" value="709.99999999999932"/>
  <variable name="w11_1" index="46" value="710.00000000000011"/>
  <variable name="w11_2" index="47" value="710.00000000000011"/>
  <variable name="w12_2" index="51" value="710"/>
  <variable name="w13_1" index="54" value="710"/>
  <variable name="w14_0" index="57" value="710"/>
  <variable name="w14_1" index="58" value="710"/>
  <variable name="w15_0" index="61" value="-1.7462014252632714e-09"/>
  <variable name="w15_3" index="64" value="710.000000000775"/>
  <variable name="w16_3" index="68" value="710"/>
  <variable name="w17_1" index="70" value="709.99999999999909"/>
  <variable name="w18_0" index="73" value="710"/>
  <variable name="w18_1" index="74" value="710"/>
  <variable name="w19_2" index="79" value="710"/>
  <variable name="w20_1" index="82" value="710"/>
  <variable name="w20_2" index="83" value="710"/>
  <variable name="w21_0" index="85" value="710.00000000177511"/>
  <variable name="w21_3" index="88" value="710"/>
  <variable name="w22_3" index="92" value="709.99999999999932"/>
  <variable name="w23_0" index="93" value="709.99999999800002"/>
  <variable name="w23_3" index="96" value="710"/>
  <variable name="w24_2" index="99" value="710"/>
  <variable name="w25_3" index="104" value="710.00000000025682"/>
  <variable name="w28_0" index="113" value="710"/>
  <variable name="w28_2" index="115" value="710.00000000000011"/>
  <variable name="w29_0" index="117" value="710"/>
  <variable name="w29_1" index="118" value="710"/>
  <variable name="w30_0" index="121" value="710"/>
  <variable name="w30_1" index="122" value="710"/>
  <variable name="w31_1" index="126" value="710"/>
  <variable name="w32_0" index="129" value="710"/>
  <variable name="w33_1" index="134" value="710"/>
  <variable name="w33_2" index="135" value="710"/>
  <variable name="w35_0" index="141" value="710"/>
  <variable name="w35_1" index="142" value="710"/>
  <variable name="w35_2" index="143" value="710"/>
  <variable name="w36_0" index="145" value="710"/>
  <variable name="w36_1" index="146" value="710"/>
  <variable name="w37_0" index="149" value="709.9999999999992"/>
  <variable name="w37_1" index="150" value="710"/>
  <variable name="w37_2" index="151" value="709.9999999999992"/>
  <variable name="w38_0" index="153" value="710"/>
  <variable name="w38_1" index="154" value="710"/>
  <variable name="w39_0" index="157" value="709.99999999999909"/>
  <variable name="w39_2" index="159" value="710"/>
  <variable name="w40_3" index="164" value="710"/>
  <variable name="w41_1" index="166" value="710"/>
  <variable name="w42_0" index="169" value="-1.1397539447005551e-10"/>
  <variable name="w43_0" index="173" value="710"/>
  <variable name="w43_3" index="176" value="710.00000000200009"/>
  <variable name="w44_0" index="177" value="710"/>
  <variable name="w48_1" index="194" value="710"/>
  <variable name="w48_2" index="195" value="710"/>
  <variable name="w49_2" index="199" value="710"/>
  <variable name="x0_20" index="221" value="1"/>
  <variable name="x1_11" index="262" value="-2.50011122915339e-12"/>
  <variable name="x1_16" index="267" value="1"/>
  <variable name="x1_20" index="271" value="2.50011122915339e-12"/>
  <variable name="x2_5" index="306" value="1"/>
  <variable name="x3_23" index="374" value="1"/>
  <variable name="x4_49" index="450" value="1"/>
  <variable name="x5_14" index="465" value="1"/>
  <variable name="x6_4" index="505" value="-3.7501668437300915e-13"/>
  <variable name="x6_39" index="540" value="1"/>
  <variable name="x6_41" index="542" value="3.7501668437300915e-13"/>
  <variable name="x7_25" index="576" value="1"/>
  <variable name="x8_8" index="609" value="1"/>
  <variable name="x9_40" index="691" value="1"/>
  <variable name="x10_6" index="707" value="1"/>
  <variable name="x11_19" index="770" value="1"/>
  <variable name="x12_21" index="822" value="1"/>
  <variable name="x13_33" index="884" value="1"/>
  <variable name="x14_30" index="931" value="1"/>
  <variable name="x15_10" index="961" value="1.0000000000025002"/>
  <variable name="x15_20" index="971" value="-2.50011122915339e-12"/>
  <variable name="x16_0" index="1001" value="1.072439798836485e-13"/>
  <variable name="x16_1" index="1002" value="0.99999999999989275"/>
  <variable name="x17_35" index="1086" value="1"/>
  <variable name="x18_31" index="1132" value="1"/>
  <variable name="x19_27" index="1178" value="1"/>
  <variable name="x20_12" index="1213" value="1"/>
  <variable name="x21_0" index="1251" value="1"/>
  <variable name="x21_46" index="1297" value="2.50011122915339e-12"/>
  <variable name="x21_47" index="1298" value="-2.50011122915339e-12"/>
  <variable name="x22_9" index="1310" value="1"/>
  <variable name="x22_10" index="1311" value="-2.50011122915339e-12"/>
  <variable name="x22_11" index="1312" value="2.50011122915339e-12"/>
  <variable name="x23_2" index="1353" value="1"/>
  <variable name="x23_3" index="1354" value="-2.50011122915339e-12"/>
  <variable name="x23_47" index="1398" value="2.50011122915339e-12"/>
  <variable name="x24_24" index="1425" value="1"/>
  <variable name="x25_3" index="1454" value="1.000000000002446"/>
  <variable name="x25_4" index="1455" value="-2.1250945447803809e-12"/>
  <variable name="x25_24" index="1475" value="-3.2105744921142429e-13"/>
  <variable name="x26_44" index="1545" value="1"/>
  <variable name="x27_43" index="1594" value="1"/>
  <variable name="x28_17" index="1618" value="1"/>
  <variable name="x29_28" index="1679" value="1"/>
  <variable name="x30_34" index="1735" value="1"/>
  <variable name="x31_37" index="1788" value="1"/>
  <variable name="x32_0" index="1801" value="1.072439798836485e-13"/>
  <variable name="x32_1" index="1802" value="1.072439798836485e-13"/>
  <variable name="x32_40" index="1841" value="-2.1448795976729701e-13"/>
  <variable name="x32_41" index="1842" value="1"/>
  <variable name="x33_11" index="1862" value="1"/>
  <variable name="x33_40" index="1891" value="3.7501668437300915e-13"/>
  <variable name="x33_41" index="1892" value="-3.7501668437300915e-13"/>
  <variable name="x34_45" index="1946" value="1"/>
  <variable name="x35_15" index="1966" value="1"/>
  <variable name="x36_29" index="2030" value="1"/>
  <variable name="x37_13" index="2064" value="1"/>
  <variable name="x38_32" index="2133" value="1"/>
  <variable name="x39_18" index="2169" value="1"/>
  <variable name="x40_7" index="2208" value="1"/>
  <variable name="x41_36" index="2287" value="1"/>
  <variable name="x42_0" index="2301" value="-1.6052872460571214e-13"/>
  <variable name="x42_24" index="2325" value="3.2105744921142429e-13"/>
  <variable name="x42_40" index="2341" value="-1.6052872460571214e-13"/>
  <variable name="x42_46" index="2347" value="1"/>
  <variable name="x43_4" index="2355" value="1.0000000000025002"/>
  <variable name="x43_43" index="2394" value="-2.50011122915339e-12"/>
  <variable name="x44_38" index="2439" value="1"/>
  <variable name="x45_47" index="2498" value="1"/>
  <variable name="x46_42" index="2543" value="1"/>
  <variable name="x46_43" index="2544" value="2.50011122915339e-12"/>
  <variable name="x46_46" index="2547" value="-2.50011122915339e-12"/>
  <variable name="x47_48" index="2599" value="1"/>
  <variable name="x48_22" index="2623" value="1"/>
  <variable name="x49_26" index="2677" value="1"/>
  <variable name="v0_0" index="2701" value="1"/>
  <variable name="v0_2" index="2703" value="1"/>
  <variable name="v1_0" index="2705" value="1.0000000000050002"/>
  <variable name="v1_1" index="2706" value="1"/>
  <variable name="v1_2" index="2707" value="0.99999999999749989"/>
  <variable name="v2_3" index="2712" value="1"/>
  <variable name="v3_2" index="2715" value="1"/>
  <variable name="v5_1" index="2722" value="1"/>
  <variable name="v5_2" index="2723" value="1"/>
  <variable name="v6_0" index="2725" value="1"/>
  <variable name="v6_1" index="2726" value="1.0000000000001874"/>
  <variable name="v6_3" index="2728" value="-3.7501668437300915e-13"/>
  <variable name="v7_2" index="2731" value="1"/>
  <variable name="v8_0" index="2733" value="1"/>
  <variable name="v8_2" index="2735" value="1"/>
  <variable name="v9_1" index="2738" value="1"/>
  <variable name="v10_3" index="2744" value="1"/>
  <variable name="v11_1" index="2746" value="1"/>
  <variable name="v11_2" index="2747" value="1"/>
  <variable name="v12_2" index="2751" value="1"/>
  <variable name="v13_1" index="2754" value="1"/>
  <variable name="v14_0" index="2757" value="1"/>
  <variable name="v14_1" index="2758" value="1"/>
  <variable name="v15_0" index="2761" value="-2.50011122915339e-12"/>
  <variable name="v15_3" index="2764" value="1.0000000000012501"/>
  <variable name="v16_3" index="2768" value="1"/>
  <variable name="v17_1" index="2770" value="1"/>
  <variable name="v18_0" index="2773" value="1"/>
  <variable name="v18_1" index="2774" value="1"/>
  <variable name="v19_2" index="2779" value="1"/>
  <variable name="v20_1" index="2782" value="1"/>
  <variable name="v20_2" index="2783" value="1"/>
  <variable name="v21_0" index="2785" value="1.0000000000025002"/>
  <variable name="v21_3" index="2788" value="1"/>
  <variable name="v22_3" index="2792" value="1"/>
  <variable name="v23_0" index="2793" value="0.99999999999749989"/>
  <variable name="v23_3" index="2796" value="0.99999999999749989"/>
  <variable name="v24_2" index="2799" value="1"/>
  <variable name="v25_0" index="2801" value="-2.7519209932407774e-13"/>
  <variable name="v25_1" index="2802" value="-2.7519209932407774e-13"/>
  <variable name="v25_2" index="2803" value="-2.7519209932407774e-13"/>
  <variable name="v25_3" index="2804" value="1.0000000000003211"/>
  <variable name="v28_0" index="2813" value="1"/>
  <variable name="v28_2" index="2815" value="1"/>
  <variable name="v29_0" index="2817" value="1"/>
  <variable name="v29_1" index="2818" value="1"/>
  <variable name="v30_0" index="2821" value="1"/>
  <variable name="v30_1" index="2822" value="1"/>
  <variable name="v31_1" index="2826" value="1"/>
  <variable name="v32_0" index="2829" value="1"/>
  <variable name="v32_3" index="2832" value="2.1448795976729701e-13"/>
  <variable name="v33_1" index="2834" value="1"/>
  <variable name="v33_2" index="2835" value="1"/>
  <variable name="v35_0" index="2841" value="1"/>
  <variable name="v35_1" index="2842" value="1"/>
  <variable name="v35_2" index="2843" value="1"/>
  <variable name="v36_0" index="2845" value="1"/>
  <variable name="v36_1" index="2846" value="1"/>
  <variable name="v37_0" index="2849" value="1"/>
  <variable name="v37_1" index="2850" value="1"/>
  <variable name="v37_2" index="2851" value="1"/>
  <variable name="v38_0" index="2853" value="1"/>
  <variable name="v38_1" index="2854" value="1"/>
  <variable name="v39_0" index="2857" value="1"/>
  <variable name="v39_2" index="2859" value="1"/>
  <variable name="v40_3" index="2864" value="1"/>
  <variable name="v41_1" index="2866" value="1"/>
  <variable name="v43_0" index="2873" value="1"/>
  <variable name="v43_3" index="2876" value="1.0000000000025002"/>
  <variable name="v44_0" index="2877" value="1"/>
  <variable name="v48_1" index="2894" value="1"/>
  <variable name="v48_2" index="2895" value="1"/>
  <variable name="v49_2" index="2899" value="1"/>
 </variables>
</CPLEXSolution>
